Instance name : SB_bar-n100-6
Authors : 
Date : 
Reference 
Solution
Route 1 : 31 81 43 37 93 30 25 40 48 87 11 90 98 80 75 44 61 28 24 78 94 46 96 74 
Route 2 : 22 4 29 54 32 82 72 79 47 15 42 97 65 23 73 9 45 59 92 33 83 95 10 50 60 100 
Route 3 : 38 88 41 16 66 12 91 62 21 71 6 56 5 17 67 3 36 55 35 14 85 64 53 86 
Route 4 : 1 34 51 7 57 20 70 84 19 8 18 68 13 69 26 2 49 76 63 52 58 99 39 27 77 89 
